benchmarks_CP/INST_36x36/30/inst36x36_30_54.dzn
S=6;
start=[|
5,	34,	-1,	16,	-1,	-1,	-1,	-1,	-1,	-1,	-1,	-1,	-1,	-1,	-1,	33,	-1,	-1,	12,	10,	-1,	27,	-1,	-1,	-1,	13,	-1,	-1,	-1,	-1,	-1,	21,	-1,	20,	-1,	9|
22,	31,	-1,	-1,	13,	20,	-1,	3,	35,	1,	-1,	-1,	15,	36,	-1,	26,	-1,	-1,	19,	6,	-1,	14,	-1,	-1,	-1,	-1,	23,	32,	-1,	-1,	-1,	-1,	-1,	-1,	-1,	-1|
-1,	1,	-1,	28,	-1,	-1,	8,	-1,	4,	14,	-1,	-1,	-1,	30,	-1,	-1,	-1,	-1,	29,	-1,	5,	-1,	2,	13,	35,	-1,	-1,	-1,	17,	-1,	-1,	-1,	-1,	-1,	-1,	-1|
-1,	-1,	25,	-1,	-1,	12,	-1,	-1,	-1,	28,	-1,	33,	-1,	-1,	-1,	-1,	23,	-1,	-1,	-1,	-1,	-1,	-1,	-1,	-1,	-1,	2,	34,	-1,	14,	-1,	-1,	16,	-1,	-1,	30|
-1,	-1,	-1,	-1,	14,	24,	-1,	12,	31,	-1,	-1,	-1,	-1,	18,	-1,	-1,	-1,	-1,	1,	22,	26,	3,	-1,	-1,	-1,	-1,	-1,	-1,	-1,	-1,	28,	-1,	-1,	-1,	-1,	-1|
-1,	-1,	-1,	-1,	26,	-1,	-1,	-1,	13,	29,	25,	-1,	-1,	-1,	-1,	-1,	-1,	-1,	18,	-1,	-1,	-1,	-1,	30,	20,	-1,	-1,	31,	-1,	-1,	-1,	-1,	-1,	-1,	-1,	-1|
20,	13,	-1,	-1,	-1,	-1,	-1,	-1,	-1,	-1,	34,	-1,	-1,	-1,	-1,	-1,	33,	-1,	36,	1,	22,	5,	-1,	-1,	-1,	-1,	17,	-1,	3,	23,	24,	-1,	7,	-1,	-1,	-1|
-1,	-1,	-1,	-1,	-1,	-1,	-1,	-1,	-1,	13,	-1,	-1,	-1,	-1,	-1,	-1,	18,	-1,	32,	-1,	-1,	-1,	-1,	2,	-1,	10,	-1,	-1,	16,	27,	-1,	28,	14,	-1,	-1,	8|
-1,	30,	-1,	27,	-1,	-1,	31,	-1,	-1,	5,	-1,	-1,	-1,	-1,	-1,	34,	-1,	7,	-1,	16,	8,	-1,	-1,	-1,	-1,	21,	28,	24,	-1,	-1,	-1,	-1,	-1,	-1,	13,	-1|
-1,	-1,	7,	-1,	-1,	-1,	-1,	-1,	-1,	-1,	-1,	-1,	-1,	-1,	-1,	-1,	-1,	-1,	24,	-1,	-1,	-1,	-1,	-1,	-1,	12,	-1,	30,	32,	-1,	-1,	31,	17,	-1,	11,	-1|
-1,	-1,	-1,	-1,	-1,	-1,	-1,	-1,	-1,	-1,	-1,	36,	-1,	19,	-1,	31,	20,	-1,	-1,	-1,	-1,	-1,	-1,	-1,	-1,	-1,	-1,	-1,	-1,	-1,	5,	-1,	-1,	-1,	-1,	-1|
-1,	36,	-1,	22,	21,	-1,	7,	15,	3,	-1,	-1,	27,	-1,	1,	26,	-1,	-1,	32,	-1,	-1,	6,	-1,	12,	-1,	-1,	-1,	-1,	-1,	-1,	-1,	-1,	-1,	35,	30,	-1,	4|
-1,	-1,	15,	-1,	-1,	-1,	14,	-1,	-1,	-1,	19,	-1,	-1,	20,	-1,	-1,	30,	34,	11,	-1,	35,	-1,	-1,	-1,	-1,	-1,	-1,	-1,	4,	32,	-1,	24,	-1,	28,	-1,	-1|
1,	-1,	-1,	-1,	-1,	-1,	-1,	-1,	-1,	-1,	32,	-1,	-1,	-1,	-1,	-1,	25,	-1,	13,	-1,	-1,	-1,	24,	-1,	-1,	19,	-1,	-1,	-1,	-1,	-1,	14,	-1,	-1,	-1,	-1|
-1,	-1,	-1,	-1,	-1,	-1,	17,	26,	-1,	-1,	-1,	-1,	5,	-1,	31,	-1,	19,	-1,	14,	2,	-1,	-1,	27,	-1,	-1,	-1,	-1,	12,	-1,	-1,	-1,	16,	-1,	29,	1,	-1|
-1,	-1,	-1,	-1,	31,	7,	-1,	-1,	9,	2,	-1,	-1,	-1,	-1,	32,	-1,	3,	-1,	5,	-1,	-1,	-1,	-1,	-1,	-1,	-1,	-1,	17,	-1,	-1,	-1,	-1,	-1,	-1,	21,	-1|
-1,	-1,	13,	29,	-1,	-1,	-1,	-1,	-1,	-1,	-1,	-1,	-1,	-1,	-1,	27,	14,	2,	-1,	-1,	30,	-1,	-1,	-1,	-1,	31,	-1,	6,	-1,	3,	9,	-1,	15,	32,	-1,	-1|
19,	-1,	-1,	-1,	-1,	-1,	-1,	-1,	-1,	33,	-1,	-1,	-1,	26,	-1,	-1,	-1,	13,	8,	-1,	-1,	-1,	6,	-1,	27,	23,	11,	-1,	-1,	1,	-1,	-1,	-1,	-1,	-1,	2|
16,	29,	-1,	-1,	-1,	-1,	-1,	-1,	34,	-1,	1,	24,	-1,	-1,	-1,	-1,	-1,	3,	6,	-1,	15,	-1,	-1,	-1,	-1,	-1,	-1,	-1,	-1,	30,	-1,	2,	11,	-1,	14,	-1|
-1,	25,	12,	-1,	-1,	-1,	22,	-1,	-1,	-1,	-1,	6,	-1,	10,	-1,	15,	-1,	18,	-1,	5,	-1,	-1,	-1,	-1,	-1,	36,	-1,	-1,	-1,	-1,	8,	-1,	-1,	-1,	24,	13|
-1,	35,	-1,	3,	27,	-1,	-1,	5,	-1,	-1,	-1,	-1,	-1,	14,	30,	12,	-1,	-1,	-1,	-1,	-1,	-1,	31,	-1,	-1,	-1,	-1,	-1,	-1,	6,	16,	19,	-1,	34,	-1,	-1|
-1,	28,	2,	-1,	-1,	14,	-1,	-1,	-1,	-1,	-1,	-1,	-1,	-1,	-1,	11,	-1,	36,	34,	-1,	-1,	-1,	7,	-1,	3,	26,	4,	-1,	23,	-1,	-1,	20,	1,	-1,	-1,	-1|
-1,	20,	-1,	-1,	-1,	-1,	18,	14,	-1,	-1,	-1,	10,	-1,	-1,	24,	-1,	6,	23,	-1,	11,	-1,	8,	-1,	33,	7,	-1,	35,	19,	-1,	9,	-1,	17,	-1,	-1,	-1,	-1|
-1,	-1,	-1,	-1,	1,	22,	-1,	-1,	33,	-1,	-1,	23,	20,	-1,	28,	-1,	27,	31,	-1,	-1,	9,	-1,	-1,	-1,	-1,	-1,	-1,	-1,	-1,	34,	-1,	-1,	-1,	7,	-1,	18|
2,	-1,	-1,	-1,	-1,	-1,	-1,	23,	-1,	-1,	30,	-1,	25,	-1,	-1,	-1,	13,	4,	-1,	-1,	-1,	-1,	-1,	-1,	17,	-1,	-1,	-1,	31,	-1,	34,	26,	-1,	-1,	28,	-1|
-1,	6,	-1,	1,	19,	-1,	-1,	25,	7,	-1,	-1,	-1,	-1,	31,	-1,	14,	-1,	-1,	20,	21,	-1,	-1,	28,	-1,	23,	-1,	-1,	10,	-1,	5,	-1,	-1,	-1,	-1,	-1,	35|
-1,	4,	-1,	-1,	-1,	-1,	5,	-1,	-1,	-1,	14,	-1,	28,	-1,	-1,	-1,	-1,	19,	-1,	-1,	-1,	34,	-1,	-1,	-1,	-1,	9,	20,	-1,	-1,	10,	33,	-1,	-1,	-1,	-1|
-1,	-1,	-1,	-1,	9,	-1,	-1,	-1,	-1,	-1,	-1,	-1,	-1,	-1,	-1,	-1,	-1,	-1,	-1,	-1,	-1,	-1,	10,	25,	-1,	-1,	-1,	-1,	15,	35,	-1,	-1,	36,	1,	-1,	19|
-1,	-1,	36,	-1,	-1,	-1,	-1,	34,	-1,	24,	-1,	15,	-1,	12,	-1,	-1,	-1,	-1,	-1,	-1,	-1,	30,	-1,	6,	-1,	-1,	-1,	-1,	-1,	-1,	-1,	-1,	-1,	-1,	-1,	-1|
-1,	-1,	-1,	32,	24,	-1,	13,	-1,	-1,	-1,	-1,	-1,	26,	-1,	10,	-1,	-1,	-1,	33,	-1,	-1,	-1,	8,	-1,	12,	-1,	6,	-1,	-1,	-1,	-1,	-1,	-1,	-1,	-1,	-1|
23,	-1,	-1,	-1,	-1,	-1,	-1,	-1,	-1,	25,	-1,	-1,	19,	-1,	18,	-1,	-1,	-1,	27,	-1,	-1,	-1,	13,	-1,	-1,	-1,	-1,	36,	-1,	-1,	32,	34,	24,	15,	-1,	-1|
-1,	22,	-1,	14,	-1,	-1,	-1,	-1,	-1,	-1,	-1,	-1,	33,	-1,	4,	-1,	11,	-1,	-1,	-1,	-1,	-1,	-1,	24,	-1,	-1,	-1,	-1,	-1,	17,	-1,	-1,	-1,	-1,	35,	-1|
18,	-1,	-1,	-1,	36,	-1,	16,	-1,	19,	-1,	-1,	-1,	21,	-1,	-1,	-1,	-1,	-1,	3,	8,	-1,	-1,	-1,	-1,	-1,	-1,	-1,	23,	24,	-1,	-1,	-1,	-1,	-1,	6,	28|
31,	32,	28,	-1,	-1,	-1,	23,	33,	5,	-1,	-1,	-1,	-1,	-1,	-1,	-1,	-1,	-1,	-1,	-1,	-1,	21,	-1,	-1,	4,	15,	18,	3,	-1,	-1,	-1,	-1,	-1,	14,	-1,	1|
-1,	-1,	20,	-1,	34,	19,	-1,	-1,	27,	18,	-1,	13,	-1,	-1,	-1,	-1,	-1,	-1,	-1,	-1,	-1,	33,	35,	-1,	-1,	-1,	-1,	-1,	29,	-1,	-1,	-1,	-1,	-1,	17,	-1|
-1,	-1,	10,	-1,	-1,	-1,	-1,	-1,	-1,	-1,	-1,	21,	-1,	27,	-1,	-1,	15,	-1,	9,	-1,	-1,	-1,	-1,	31,	-1,	-1,	-1,	35,	-1,	-1,	-1,	-1,	-1,	-1,	-1,	26|];
